NAME        
ROWS
 N  .COSTA  
 E  1MS005  
 E  1MS006  
 E  1MS011  
 E  1MS012  
 E  1MS019  
 E  1MS020  
 E  1MS024  
 E  1MS025  
 L  1MS061  
 E  1MS068  
 E  1MS070  
 E  1MS072  
 E  1MS073  
COLUMNS
    1D1IK     .COSTA    0
    1D1IN     .COSTA    0
    1D1MK     .COSTA    0
    1D1YK     .COSTA    0
    1D2ID     .COSTA    0
    1D2IK     .COSTA    0
    1D2IN     .COSTA    0
    1D2LC     .COSTA    0
    1D2MD     .COSTA    0
    1D2MK     .COSTA    0
    1D2PB     .COSTA    0
    1D2US     .COSTA    0
    1D2YD     .COSTA    0
    1D2YK     .COSTA    0
    1D4BY     .COSTA    0
    1DAOU     .COSTA    0
    1DASP     .COSTA    0
    1DBZS     .COSTA    0
    1DC2P     .COSTA    0
    1DC3A     .COSTA    0
    1DC3P     .COSTA    0
    1DC3R     .COSTA    0
    1DC4A     .COSTA    0
    1DC65     .COSTA    0
    1DC75     .COSTA    0
    1DC8U     .COSTA    0
    1DCKP     .COSTA    0
    1DCKS     .COSTA    0
    1DCOU     .COSTA    0
    1DCTL     .COSTA    0
    1DDID     .COSTA    0
    1DDMD     .COSTA    0
    1DDUS     .COSTA    0
    1DDYD     .COSTA    0
    1DFVB     .COSTA    0
    1DGBY     .COSTA    0
    1DGOU     .COSTA    0
    1DH2P     .COSTA    0
    1DHNU     .COSTA    0
    1DHPU     .COSTA    0
    1DI4R     .COSTA    0
    1DIBY     .COSTA    0
    1DICD     .COSTA    0
    1DICG     .COSTA    0
    1DICK     .COSTA    0
    1DIGD     .COSTA    0
    1DLBY     .COSTA    0
    1DLPU     .COSTA    0
    1DMCD     .COSTA    0
    1DMCG     .COSTA    0
    1DMCK     .COSTA    0
    1DMCST    .COSTA    0
    1DMGD     .COSTA    0
    1DN4R     .COSTA    0
    1DNBY     .COSTA    0
    1DO3R     .COSTA    0
    1DO4N     .COSTA    0
    1DO4R     .COSTA    0
    1DOCST    .COSTA    0
    1DP94     .COSTA    0
    1DP98     .COSTA    0
    1DPAL     .COSTA    0
    1DPC4     .COSTA    0
    1DPCT     .COSTA    0
    1DPIN     .COSTA    0
    1DPOH     .COSTA    0
    1DPPS     .COSTA    0
    1DPREV    .COSTA    0
    1DPRF     .COSTA    0
    1DPTL     .COSTA    0
    1DPXY     .COSTA    0
    1DPYS     .COSTA    0
    1DR94     .COSTA    0
    1DR98     .COSTA    0
    1DRAL     .COSTA    0
    1DRBT     .COSTA    0
    1DRC4     .COSTA    0
    1DRCT     .COSTA    0
    1DRIN     .COSTA    0
    1DROH     .COSTA    0
    1DRRF     .COSTA    0
    1DRTL     .COSTA    0
    1DRXY     .COSTA    0
    1DS5B     .COSTA    0
    1DS5F     .COSTA    0
    1DS5G     .COSTA    0
    1DS5L     .COSTA    0
    1DS5P     .COSTA    0
    1DS5R     .COSTA    0
    1DS5S     .COSTA    0
    1DS5V     .COSTA    0
    1DS6B     .COSTA    0
    1DS6L     .COSTA    0
    1DS6R     .COSTA    0
    1DS6S     .COSTA    0
    1DS6V     .COSTA    0
    1DSCO     .COSTA    0
    1DSPF     .COSTA    0
    1DSUS     .COSTA    0
    1DSVB     .COSTA    0
    1DTLS     .COSTA    0
    1DV6I     .COSTA    0
    1DV6M     .COSTA    0
    1DV6Y     .COSTA    0
    1DXC3     .COSTA    0
    1DXI4     .COSTA    0
    1DXO4     .COSTA    0
    1DXPY     .COSTA    0
    1DXYS     .COSTA    0
    1DYCD     .COSTA    0
    1DYCG     .COSTA    0
    1DYCK     .COSTA    0
    1DYCO     .COSTA    0
    1DYGD     .COSTA    0
    SCCOL1    .COSTA    0
    SCCOL2    .COSTA    0
    SCCOL3    .COSTA    0
    SCCOL4    .COSTA    0
    SCCOL5    .COSTA    0
    1M1SK     .COSTA    0
    1M1YK     .COSTA    0
    1M2BD     .COSTA    0
    1M2BG     .COSTA    0
    1M2SK     .COSTA    0
    1M2YK     .COSTA    0
    1M1IN     .COSTA    0
    1M2IN     .COSTA    0
    1M2LS     .COSTA    0
    1M2LY     .COSTA    0
    1M2SD     .COSTA    0
    1M2SG     .COSTA    0
    1M2UD     .COSTA    0
    1M2UG     .COSTA    0
    1M2UL     .COSTA    0
    1M2YD     .COSTA    0
    1M2YG     .COSTA    0
    1M5LS     .COSTA    0
    1M5LY     .COSTA    0
    1M5R      .COSTA    0
    1M5SB     .COSTA    0
    1M5SD     .COSTA    0
    1M5SG     .COSTA    0
    1M5SL     .COSTA    0
    1M5YB     .COSTA    0
    1M5YD     .COSTA    0
    1M5YG     .COSTA    0
    1M65S     1MS005    -0.036
    1M65S     1MS006    -0.056
    1M65S     1MS020    1
    1M65Y     1MS005    -0.035
    1M65Y     1MS006    -0.056
    1M65Y     1MS019    1
    1M6SB     .COSTA    0
    1M6SD     .COSTA    0
    1M6SG     .COSTA    0
    1M6SL     .COSTA    0
    1M75S     1MS005    -0.041
    1M75S     1MS006    -0.0665
    1M75S     1MS020    1
    1M75Y     1MS005    -0.039
    1M75Y     1MS006    -0.064
    1M75Y     1MS019    1
    1M94S     1MS005    -0.0275
    1M94S     1MS025    1
    1M94Y     1MS005    -0.0457
    1M94Y     1MS024    1
    1M98S     1MS005    -0.0314
    1M98S     1MS025    1
    1M98Y     1MS005    -0.05
    1M98Y     1MS024    1
    1MAF1     .COSTA    0
    1MAF2     .COSTA    0
    1MAF3     .COSTA    0
    1MAF4     .COSTA    0
    1MALK     .COSTA    0
    1MASP     1MS019    0.138
    1MC2P     .COSTA    0
    1MC3F     1MS068    1
    1MC3P     1MS005    1
    1MC3P     1MS068    -0.85
    1MC3S     .COSTA    -1
    1MC3S     1MS068    1
    1MC4P     .COSTA    0
    1MCSD     1MS005    -0.002
    1MCSD     1MS020    -0.344
    1MCSD     1MS061    1
    1MCSD     1MS073    -0.22
    1MCSG     1MS005    -0.002
    1MCSG     1MS012    -0.22
    1MCSG     1MS020    -0.394
    1MCSG     1MS061    1
    1MCYD     1MS005    -0.001
    1MCYD     1MS019    -0.354
    1MCYD     1MS061    1
    1MCYD     1MS072    -0.125
    1MCYG     1MS005    -0.001
    1MCYG     1MS011    -0.125
    1MCYG     1MS019    -0.407
    1MCYG     1MS061    1
    1MFG      .COSTA    0
    1MH2P     .COSTA    0
    1MI4D     .COSTA    0
    1MI4P     .COSTA    0
    1MIN4     .COSTA    0
    1MMLC     .COSTA    0
    1MN4D     .COSTA    0
    1MO4P     .COSTA    0
    1MON4     .COSTA    0
    1MOPC     .COSTA    0
    1MP94     .COSTA    0
    1MP98     .COSTA    0
    1MPC3     1MS005    -0.1
    1MPC3     1MS070    1
    1MPC4     .COSTA    0
    1MPCP     .COSTA    0
    1MPIN     .COSTA    0
    1MPN4     .COSTA    0
    1MPRC     .COSTA    0
    1MPSD     1MS025    -0.75
    1MPSD     1MS073    1
    1MPSG     1MS012    1
    1MPSG     1MS025    -0.86
    1MPSR     .COSTA    0
    1MPTL     .COSTA    0
    1MPYD     1MS024    -0.81
    1MPYD     1MS072    1
    1MPYG     1MS011    1
    1MPYG     1MS024    -0.89
    1MPYP     1MS006    1
    1MPYP     1MS070    -0.82
    1MR94     .COSTA    0
    1MR98     .COSTA    0
    1MRCP     .COSTA    0
    1MRIN     .COSTA    0
    1MRN4     .COSTA    0
    1MRSR     .COSTA    0
    1MRTL     .COSTA    0
    1MS6P     .COSTA    0
    1MSRD     .COSTA    0
    1MSWD     .COSTA    0
    1MTCS     .COSTA    0
    1MULS     .COSTA    0
    1MULY     .COSTA    0
    1MUYD     .COSTA    0
    1MUYG     .COSTA    0
    SCCOL6    .COSTA    0
    1P1BNP    .COSTA    0
    1P1BNR    .COSTA    0
    1P1SNP    .COSTA    0
    1P1SNR    .COSTA    0
    1P2BNP    .COSTA    0
    1P2BNR    .COSTA    0
    1P2SNP    .COSTA    0
    1P2SNR    .COSTA    0
    1PG11D    .COSTA    0
    1PG11I    .COSTA    0
    1PG11R    .COSTA    0
    1PG11T    .COSTA    0
    1PG12D    .COSTA    0
    1PG12I    .COSTA    0
    1PG12R    .COSTA    0
    1PG12T    .COSTA    0
    1PG1PD    .COSTA    0
    1PG1PI    .COSTA    0
    1PG1PR    .COSTA    0
    1PG1PT    .COSTA    0
    1PG1RD    .COSTA    0
    1PG1RI    .COSTA    0
    1PG1RR    .COSTA    0
    1PG1RT    .COSTA    0
    1PG21D    .COSTA    0
    1PG21I    .COSTA    0
    1PG21M    .COSTA    0
    1PG21R    .COSTA    0
    1PG21T    .COSTA    0
    1PG22D    .COSTA    0
    1PG22I    .COSTA    0
    1PG22M    .COSTA    0
    1PG22R    .COSTA    0
    1PG22T    .COSTA    0
    1PG2PD    .COSTA    0
    1PG2PI    .COSTA    0
    1PG2PM    .COSTA    0
    1PG2PR    .COSTA    0
    1PG2PT    .COSTA    0
    1PG2RD    .COSTA    0
    1PG2RI    .COSTA    0
    1PG2RM    .COSTA    0
    1PG2RR    .COSTA    0
    1PG2RT    .COSTA    0
    1PT11D    .COSTA    0
    1PT11I    .COSTA    0
    1PT11R    .COSTA    0
    1PT12D    .COSTA    0
    1PT12I    .COSTA    0
    1PT12R    .COSTA    0
    1PT1PD    .COSTA    0
    1PT1PI    .COSTA    0
    1PT1PR    .COSTA    0
    1PT1RD    .COSTA    0
    1PT1RI    .COSTA    0
    1PT1RR    .COSTA    0
    1PT21D    .COSTA    0
    1PT21I    .COSTA    0
    1PT21R    .COSTA    0
    1PT22D    .COSTA    0
    1PT22I    .COSTA    0
    1PT22R    .COSTA    0
    1PT2PD    .COSTA    0
    1PT2PI    .COSTA    0
    1PT2PR    .COSTA    0
    1PT2RD    .COSTA    0
    1PT2RI    .COSTA    0
    1PT2RR    .COSTA    0
    1PT31D    .COSTA    0
    1PT31I    .COSTA    0
    1PT31R    .COSTA    0
    1PT32D    .COSTA    0
    1PT32I    .COSTA    0
    1PT32R    .COSTA    0
    1PT3PD    .COSTA    0
    1PT3PI    .COSTA    0
    1PT3PR    .COSTA    0
    1PT3RD    .COSTA    0
    1PT3RI    .COSTA    0
    1PT3RR    .COSTA    0
    1PT41D    .COSTA    0
    1PT41I    .COSTA    0
    1PT41R    .COSTA    0
    1PT42D    .COSTA    0
    1PT42I    .COSTA    0
    1PT42R    .COSTA    0
    1PT4PD    .COSTA    0
    1PT4PI    .COSTA    0
    1PT4PR    .COSTA    0
    1PT4RD    .COSTA    0
    1PT4RI    .COSTA    0
    1PT4RR    .COSTA    0
    1PT51D    .COSTA    0
    1PT51I    .COSTA    0
    1PT51M    .COSTA    0
    1PT51R    .COSTA    0
    1PT52D    .COSTA    0
    1PT52I    .COSTA    0
    1PT52M    .COSTA    0
    1PT52R    .COSTA    0
    1PT5PD    .COSTA    0
    1PT5PI    .COSTA    0
    1PT5PM    .COSTA    0
    1PT5PR    .COSTA    0
    1PT5RD    .COSTA    0
    1PT5RI    .COSTA    0
    1PT5RM    .COSTA    0
    1PT5RR    .COSTA    0
    1PT61D    .COSTA    0
    1PT61I    .COSTA    0
    1PT61M    .COSTA    0
    1PT61R    .COSTA    0
    1PT62D    .COSTA    0
    1PT62I    .COSTA    0
    1PT62M    .COSTA    0
    1PT62R    .COSTA    0
    1PT6PD    .COSTA    0
    1PT6PI    .COSTA    0
    1PT6PM    .COSTA    0
    1PT6PR    .COSTA    0
    1PT6RD    .COSTA    0
    1PT6RI    .COSTA    0
    1PT6RM    .COSTA    0
    1PT6RR    .COSTA    0
    1PTCST    .COSTA    0
    1R1IN     .COSTA    0
    1R2IN     .COSTA    0
    1RALKI    .COSTA    0
    1RBGAS    .COSTA    0
    1RBIC4    .COSTA    0
    1RBNC4    .COSTA    0
    1RC3FU    .COSTA    0
    1RC4FU    .COSTA    0
    1RC6      .COSTA    0
    1RC7      .COSTA    0
    1RC7TX    .COSTA    0
    1RC8TX    .COSTA    0
    1RCOKE    .COSTA    0
    1RCOKR    .COSTA    0
    1RCOKS    .COSTA    0
    1RCOKT    .COSTA    0
    1RCRUD    .COSTA    0
    1RDLCO    .COSTA    0
    1REXTR    .COSTA    0
    1RF2GO    .COSTA    0
    1RF2KR    .COSTA    0
    1RF3CO    .COSTA    0
    1RF6CO    .COSTA    0
    1RF6SL    .COSTA    0
    1RFC01    .COSTA    0
    1RFC02    .COSTA    0
    1RFC03    .COSTA    0
    1RFC04    .COSTA    0
    1RFC05    .COSTA    0
    1RFC06    .COSTA    0
    1RFC07    .COSTA    0
    1RFC08    .COSTA    0
    1RFC09    .COSTA    0
    1RFC10    .COSTA    0
    1RFC11    .COSTA    0
    1RFC12    .COSTA    0
    1RFC13    .COSTA    0
    1RFC14    .COSTA    0
    1RFC15    .COSTA    0
    1RFC16    .COSTA    0
    1RFC17    .COSTA    0
    1RFC18    .COSTA    0
    1RFC19    .COSTA    0
    1RFC20    .COSTA    0
    1RFC21    .COSTA    0
    1RFC22    .COSTA    0
    1RFCCU    .COSTA    0
    1RFCOD    .COSTA    0
    1RFDIE    .COSTA    0
    1RFHDO    .COSTA    0
    1RFKER    .COSTA    0
    1RFLCO    .COSTA    0
    1RFRED    .COSTA    0
    1RFRES    .COSTA    0
    1RFRHC    .COSTA    0
    1RFTHR    .COSTA    0
    1RGAS     .COSTA    0
    1RLFUL    .COSTA    0
    1RLPG     .COSTA    0
    1RMCST    .COSTA    0
    1ROCST    .COSTA    0
    1RP84R    .COSTA    0
    1RP88R    .COSTA    0
    1RP92R    .COSTA    0
    1RP95R    .COSTA    0
    1RPALC    .COSTA    0
    1RPALK    .COSTA    0
    1RPBBL    .COSTA    0
    1RPCAT    .COSTA    0
    1RPIC4    .COSTA    0
    1RPIN     .COSTA    0
    1RPMON    .COSTA    0
    1RPNAG    .COSTA    0
    1RPNC4    .COSTA    0
    1RPREV    .COSTA    0
    1RPRON    .COSTA    0
    1RPTEL    .COSTA    0
    1RPUFU    .COSTA    0
    1RR80R    .COSTA    0
    1RR84R    .COSTA    0
    1RR88R    .COSTA    0
    1RR92R    .COSTA    0
    1RR95R    .COSTA    0
    1RRALK    .COSTA    0
    1RRBBL    .COSTA    0
    1RRC3P    .COSTA    0
    1RRC45    .COSTA    0
    1RRC4O    .COSTA    0
    1RRC4P    .COSTA    0
    1RRC6     .COSTA    0
    1RRC7     .COSTA    0
    1RRC8E    .COSTA    0
    1RRCAT    .COSTA    0
    1RRCOK    .COSTA    0
    1RRCTF    .COSTA    0
    1RRDEX    .COSTA    0
    1RRHN     .COSTA    0
    1RRIC4    .COSTA    0
    1RRIN     .COSTA    0
    1RRLCT    .COSTA    0
    1RRMON    .COSTA    0
    1RRNC4    .COSTA    0
    1RRRON    .COSTA    0
    1RRTEL    .COSTA    0
    1RRTHR    .COSTA    0
    1RRXF1    .COSTA    0
    1RSBT     .COSTA    0
    1RSCOK    .COSTA    0
    1RSLFU    .COSTA    0
    1RSNO1    .COSTA    0
    1RSNO2    .COSTA    0
    1RSNO3    .COSTA    0
    1RSPRM    .COSTA    0
    1RSREG    .COSTA    0
    1RTCHG    .COSTA    0
    1RTFUL    .COSTA    0
    1RVFUL    .COSTA    0
    1RXSFL    .COSTA    0
RHS
    RHS_V     1MS061    270
ENDATA
